data/lp_files/q3/66_1.lp
\ Model foo
\ LP format - for model browsing. Use MPS format to capture full model detail.
Minimize
  z
Subject To
 allocateEach[1]: x[1,1] + x[2,1] + x[3,1] + x[4,1] = 1
 allocateEach[2]: x[1,2] + x[2,2] + x[3,2] + x[4,2] = 1
 allocateEach[3]: x[1,3] + x[2,3] + x[3,3] + x[4,3] = 1
 allocateEach[4]: x[1,4] + x[2,4] + x[3,4] + x[4,4] = 1
 allocateEach[5]: x[1,5] + x[2,5] + x[3,5] + x[4,5] = 1
 allocateEach[6]: x[1,6] + x[2,6] + x[3,6] + x[4,6] = 1
 allocateAllCash: cashProportion[1] + cashProportion[2] + cashProportion[3]
   + cashProportion[4] = 1
 findWorstP[1,2]: z + 0.0238788862887435 cashProportion[1]
   - 0.0238788862887435 cashProportion[2] + 0.1576961650508621 x[1,1]
   + 0.1888342327713836 x[1,2] + 0.1812885047041406 x[1,3]
   + 0.1152156263431874 x[1,4] + 0.1356081952337743 x[1,5]
   + 0.1974783896079087 x[1,6] - 0.1576961650508621 x[2,1]
   - 0.1888342327713836 x[2,2] - 0.1812885047041406 x[2,3]
   - 0.1152156263431874 x[2,4] - 0.1356081952337743 x[2,5]
   - 0.1974783896079087 x[2,6] >= 0
 findWorstP[1,3]: z + 0.0238788862887435 cashProportion[1]
   - 0.0238788862887435 cashProportion[3] + 0.1576961650508621 x[1,1]
   + 0.1888342327713836 x[1,2] + 0.1812885047041406 x[1,3]
   + 0.1152156263431874 x[1,4] + 0.1356081952337743 x[1,5]
   + 0.1974783896079087 x[1,6] - 0.1576961650508621 x[3,1]
   - 0.1888342327713836 x[3,2] - 0.1812885047041406 x[3,3]
   - 0.1152156263431874 x[3,4] - 0.1356081952337743 x[3,5]
   - 0.1974783896079087 x[3,6] >= 0
 findWorstP[1,4]: z + 0.0238788862887435 cashProportion[1]
   - 0.0238788862887435 cashProportion[4] + 0.1576961650508621 x[1,1]
   + 0.1888342327713836 x[1,2] + 0.1812885047041406 x[1,3]
   + 0.1152156263431874 x[1,4] + 0.1356081952337743 x[1,5]
   + 0.1974783896079087 x[1,6] - 0.1576961650508621 x[4,1]
   - 0.1888342327713836 x[4,2] - 0.1812885047041406 x[4,3]
   - 0.1152156263431874 x[4,4] - 0.1356081952337743 x[4,5]
   - 0.1974783896079087 x[4,6] >= 0
 findWorstP[2,1]: z - 0.03125 cashProportion[1] + 0.03125 cashProportion[2]
   - 0.138625 x[1,1] - 0.310375 x[1,2] - 0.1019375 x[1,3]
   - 0.25721875 x[1,4] - 0.024 x[1,5] - 0.13659375 x[1,6] + 0.138625 x[2,1]
   + 0.310375 x[2,2] + 0.1019375 x[2,3] + 0.25721875 x[2,4] + 0.024 x[2,5]
   + 0.13659375 x[2,6] >= 0
 findWorstP[2,3]: z + 0.03125 cashProportion[2] - 0.03125 cashProportion[3]
   + 0.138625 x[2,1] + 0.310375 x[2,2] + 0.1019375 x[2,3]
   + 0.25721875 x[2,4] + 0.024 x[2,5] + 0.13659375 x[2,6] - 0.138625 x[3,1]
   - 0.310375 x[3,2] - 0.1019375 x[3,3] - 0.25721875 x[3,4] - 0.024 x[3,5]
   - 0.13659375 x[3,6] >= 0
 findWorstP[2,4]: z + 0.03125 cashProportion[2] - 0.03125 cashProportion[4]
   + 0.138625 x[2,1] + 0.310375 x[2,2] + 0.1019375 x[2,3]
   + 0.25721875 x[2,4] + 0.024 x[2,5] + 0.13659375 x[2,6] - 0.138625 x[4,1]
   - 0.310375 x[4,2] - 0.1019375 x[4,3] - 0.25721875 x[4,4] - 0.024 x[4,5]
   - 0.13659375 x[4,6] >= 0
 findWorstP[3,1]: z - 0.0344863261716729 cashProportion[1]
   + 0.0344863261716729 cashProportion[3] - 0.2579577197641136 x[1,1]
   - 0.0566955202262303 x[1,2] - 0.2573369658930235 x[1,3]
   - 0.1382211952960651 x[1,4] - 0.229540986998655 x[1,5]
   - 0.0257612856502397 x[1,6] + 0.2579577197641136 x[3,1]
   + 0.0566955202262303 x[3,2] + 0.2573369658930235 x[3,3]
   + 0.1382211952960651 x[3,4] + 0.229540986998655 x[3,5]
   + 0.0257612856502397 x[3,6] >= 0
 findWorstP[3,2]: z - 0.0344863261716729 cashProportion[2]
   + 0.0344863261716729 cashProportion[3] - 0.2579577197641136 x[2,1]
   - 0.0566955202262303 x[2,2] - 0.2573369658930235 x[2,3]
   - 0.1382211952960651 x[2,4] - 0.229540986998655 x[2,5]
   - 0.0257612856502397 x[2,6] + 0.2579577197641136 x[3,1]
   + 0.0566955202262303 x[3,2] + 0.2573369658930235 x[3,3]
   + 0.1382211952960651 x[3,4] + 0.229540986998655 x[3,5]
   + 0.0257612856502397 x[3,6] >= 0
 findWorstP[3,4]: z + 0.0344863261716729 cashProportion[3]
   - 0.0344863261716729 cashProportion[4] + 0.2579577197641136 x[3,1]
   + 0.0566955202262303 x[3,2] + 0.2573369658930235 x[3,3]
   + 0.1382211952960651 x[3,4] + 0.229540986998655 x[3,5]
   + 0.0257612856502397 x[3,6] - 0.2579577197641136 x[4,1]
   - 0.0566955202262303 x[4,2] - 0.2573369658930235 x[4,3]
   - 0.1382211952960651 x[4,4] - 0.229540986998655 x[4,5]
   - 0.0257612856502397 x[4,6] >= 0
 findWorstP[4,1]: z - 0.0336462433969247 cashProportion[1]
   + 0.0336462433969247 cashProportion[4] - 0.1393627401500622 x[1,1]
   - 0.3031862992496888 x[1,2] - 0.1424918407859762 x[1,3]
   - 0.2760337808283705 x[1,4] - 0.00363379428686787 x[1,5]
   - 0.1016453013021096 x[1,6] + 0.1393627401500622 x[4,1]
   + 0.3031862992496888 x[4,2] + 0.1424918407859762 x[4,3]
   + 0.2760337808283705 x[4,4] + 0.00363379428686787 x[4,5]
   + 0.1016453013021096 x[4,6] >= 0
 findWorstP[4,2]: z - 0.0336462433969247 cashProportion[2]
   + 0.0336462433969247 cashProportion[4] - 0.1393627401500622 x[2,1]
   - 0.3031862992496888 x[2,2] - 0.1424918407859762 x[2,3]
   - 0.2760337808283705 x[2,4] - 0.00363379428686787 x[2,5]
   - 0.1016453013021096 x[2,6] + 0.1393627401500622 x[4,1]
   + 0.3031862992496888 x[4,2] + 0.1424918407859762 x[4,3]
   + 0.2760337808283705 x[4,4] + 0.00363379428686787 x[4,5]
   + 0.1016453013021096 x[4,6] >= 0
 findWorstP[4,3]: z - 0.0336462433969247 cashProportion[3]
   + 0.0336462433969247 cashProportion[4] - 0.1393627401500622 x[3,1]
   - 0.3031862992496888 x[3,2] - 0.1424918407859762 x[3,3]
   - 0.2760337808283705 x[3,4] - 0.00363379428686787 x[3,5]
   - 0.1016453013021096 x[3,6] + 0.1393627401500622 x[4,1]
   + 0.3031862992496888 x[4,2] + 0.1424918407859762 x[4,3]
   + 0.2760337808283705 x[4,4] + 0.00363379428686787 x[4,5]
   + 0.1016453013021096 x[4,6] >= 0
Bounds
 z <= 1
 -infinity <= cashProportion[1] <= 1
 -infinity <= cashProportion[2] <= 1
 -infinity <= cashProportion[3] <= 1
 -infinity <= cashProportion[4] <= 1
Binaries
 x[1,1] x[1,2] x[1,3] x[1,4] x[1,5] x[1,6] x[2,1] x[2,2] x[2,3] x[2,4]
 x[2,5] x[2,6] x[3,1] x[3,2] x[3,3] x[3,4] x[3,5] x[3,6] x[4,1] x[4,2]
 x[4,3] x[4,4] x[4,5] x[4,6]
End
